Lendo entrada...
Fim leitura entrada !

Nomes de variáveis criados !
a: 2 b: 3
a: 5 b: 1


/* Objective function */
min: +Y_1 +Y_2 +Y_3 +Y_4 +Y_5;

/* Constraints */
+M_1_1 +M_1_2 +M_1_3 +M_1_4 +M_1_5 = 1;
+5 M_1_1 +6 M_2_1 +4 M_3_1 +8 M_4_1 +5 M_5_1 -10 Y_1 <= 0;
+M_2_1 +M_2_2 +M_2_3 +M_2_4 +M_2_5 = 1;
+5 M_1_2 +6 M_2_2 +4 M_3_2 +8 M_4_2 +5 M_5_2 -10 Y_2 <= 0;
+M_3_1 +M_3_2 +M_3_3 +M_3_4 +M_3_5 = 1;
+5 M_1_3 +6 M_2_3 +4 M_3_3 +8 M_4_3 +5 M_5_3 -10 Y_3 <= 0;
+M_4_1 +M_4_2 +M_4_3 +M_4_4 +M_4_5 = 1;
+5 M_1_4 +6 M_2_4 +4 M_3_4 +8 M_4_4 +5 M_5_4 -10 Y_4 <= 0;
+M_5_1 +M_5_2 +M_5_3 +M_5_4 +M_5_5 = 1;
+5 M_1_5 +6 M_2_5 +4 M_3_5 +8 M_4_5 +5 M_5_5 -10 Y_5 <= 0;
0 M_1_1 <= 0;
-M_2_1 +M_3_1 <= 0;
-M_2_1 -M_2_2 +M_3_1 +M_3_2 <= 0;
-M_2_1 -M_2_2 -M_2_3 +M_3_1 +M_3_2 +M_3_3 <= 0;
-M_2_1 -M_2_2 -M_2_3 -M_2_4 +M_3_1 +M_3_2 +M_3_3 +M_3_4 <= 0;
+M_2_1 +M_3_1 <= 1;
+M_2_2 +M_3_2 <= 1;
+M_2_3 +M_3_3 <= 1;
+M_2_4 +M_3_4 <= 1;
+M_2_5 +M_3_5 <= 1;
0 M_1_1 <= 0;
+M_1_1 -M_5_1 <= 0;
+M_1_1 +M_1_2 -M_5_1 -M_5_2 <= 0;
+M_1_1 +M_1_2 +M_1_3 -M_5_1 -M_5_2 -M_5_3 <= 0;
+M_1_1 +M_1_2 +M_1_3 +M_1_4 -M_5_1 -M_5_2 -M_5_3 -M_5_4 <= 0;
+M_1_1 +M_5_1 <= 1;
+M_1_2 +M_5_2 <= 1;
+M_1_3 +M_5_3 <= 1;
+M_1_4 +M_5_4 <= 1;
+M_1_5 +M_5_5 <= 1;
R31: +Y_1 >= 0;
R32: +Y_1 <= 1;
R33: +M_1_1 >= 0;
R34: +M_1_1 <= 1;
R35: +M_1_2 >= 0;
R36: +M_1_2 <= 1;
R37: +M_1_3 >= 0;
R38: +M_1_3 <= 1;
R39: +M_1_4 >= 0;
R40: +M_1_4 <= 1;
R41: +M_1_5 >= 0;
R42: +M_1_5 <= 1;
R43: +Y_2 = 1;
R44: +M_2_1 >= 0;
R45: +M_2_1 <= 1;
R46: +M_2_2 >= 0;
R47: +M_2_2 <= 1;
R48: +M_2_3 >= 0;
R49: +M_2_3 <= 1;
R50: +M_2_4 >= 0;
R51: +M_2_4 <= 1;
R52: +M_2_5 >= 0;
R53: +M_2_5 <= 1;
R54: +Y_3 = 1;
R55: +M_3_1 >= 0;
R56: +M_3_1 <= 1;
R57: +M_3_2 = 1;
R58: +M_3_3 >= 0;
R59: +M_3_3 <= 1;
R60: +M_3_4 >= 0;
R61: +M_3_4 <= 1;
R62: +M_3_5 >= 0;
R63: +M_3_5 <= 1;
R64: +Y_4 >= 0;
R65: +Y_4 <= 1;
R66: +M_4_1 >= 0;
R67: +M_4_1 <= 1;
R68: +M_4_2 >= 0;
R69: +M_4_2 <= 1;
R70: +M_4_3 >= 0;
R71: +M_4_3 <= 1;
R72: +M_4_4 >= 0;
R73: +M_4_4 <= 1;
R74: +M_4_5 >= 0;
R75: +M_4_5 <= 1;
R76: +Y_5 >= 0;
R77: +Y_5 <= 1;
R78: +M_5_1 >= 0;
R79: +M_5_1 <= 1;
R80: +M_5_2 >= 0;
R81: +M_5_2 <= 1;
R82: +M_5_3 = 1;
R83: +M_5_4 >= 0;
R84: +M_5_4 <= 1;
R85: +M_5_5 >= 0;
R86: +M_5_5 <= 1;

Resultado: 3.100000
M_1_1: 0.000000
M_1_2: 0.000000
M_1_3: 0.000000
M_1_4: 1.000000
M_1_5: 0.000000
M_2_1: 1.000000
M_2_2: 0.000000
M_2_3: 0.000000
M_2_4: 0.000000
M_2_5: 0.000000
M_3_1: 0.000000
M_3_2: 1.000000
M_3_3: 0.000000
M_3_4: 0.000000
M_3_5: 0.000000
M_4_1: 0.000000
M_4_2: 0.375000
M_4_3: 0.625000
M_4_4: 0.000000
M_4_5: 0.000000
M_5_1: 0.000000
M_5_2: 0.000000
M_5_3: 1.000000
M_5_4: 0.000000
M_5_5: 0.000000
Y_1: 0.600000
Y_2: 1.000000
Y_3: 1.000000
Y_4: 0.500000
Y_5: 0.000000
3.10
